50 8
285 869
365 764
761 391
898 209
791 458
244 291
617 882
728 203
293 224
453 857
297 132
245 281
317 869
468 153
673 648
419 326
562 90
406 781
309 908
226 347
251 354
767 289
214 613
558 756
619 798
424 822
95 612
455 512
838 419
286 351
780 160
789 223
842 62
272 245
637 297
464 192
451 675
420 556
816 205
819 121
355 376
562 504
416 518
246 366
462 883
545 282
589 870
571 649
725 591
500 766
